NAME : in_house_9_23
TYPE : TSP
DIMENSION : 9
EDGE_WEIGHT_TYPE : EXPLICIT
EDGE_WEIGHT_FORMAT : UPPER_ROW
COMMENT : INVERSION_SHIFT=4
EDGE_WEIGHT_SECTION
61
32
48
55
41
48
62
76
46
10
56
52
36
44
72
9
74
72
34
32
74
80
6
8
62
55
63
66
67
74
1
73
55
51
70
81
